(set-logic QF_S)
(declare-fun _var_0xINPUT_116870_() String)
(declare-fun __woorpje_diseq_pref0_() String)
(declare-fun __woorpje_diseq_suf_l0_() String)
(declare-fun __woorpje_diseq_suf_r0_() String)
(assert (=(str.++ _var_0xINPUT_116870_  "")(str.++ __woorpje_diseq_pref0_  "O" __woorpje_diseq_suf_l0_  "")) )
(assert (=(str.++  "RMHVLOc4sE" "")(str.++ __woorpje_diseq_pref0_  "E" __woorpje_diseq_suf_r0_  "")) )
(check-sat)
